;; sequence(s): A239123
;; terms: 21 149 277 405 533 661 789 917 1045 1173 1301 1429 1557 1685 1813 1941 2069 2197 2325 2453
;; small program: loop(1 + (2 * (x + x)), 1 + 2, x + x)
;; fast program: 1 + (2 * (2 + (2 * (2 * (2 + (2 * (2 * (2 * (x + x)))))))))
(set-logic UFNIA)
(declare-fun f0 (Int) Int)
(declare-fun g0 () Int)
(declare-fun h0 (Int) Int)
(declare-fun u0 (Int Int) Int)
(declare-fun v0 (Int) Int)
(declare-fun small (Int) Int)
(declare-fun fast (Int) Int)
(assert (forall ((x Int)) (= (f0 x) (+ 1 (* 2 (+ x x))))))
(assert (= g0 (+ 1 2)))
(assert (forall ((x Int)) (= (h0 x) (+ x x))))
(assert (forall ((x Int) (y Int)) (= (u0 x y) (ite (<= x 0) y (f0 (u0 (- x 1) y))))))
(assert (forall ((x Int)) (= (v0 x) (u0 g0 (h0 x)))))
(assert (forall ((x Int)) (= (small x) (v0 x))))
(assert (forall ((x Int)) (= (fast x) (+ 1 (* 2 (+ 2 (* 2 (* 2 (+ 2 (* 2 (* 2 (* 2 (+ x x)))))))))))))
(assert (exists ((c Int)) (and (>= c 0) (not (= (small c) (fast c))))))
(check-sat)
